(declare-const |phi_x:10| Int)
(declare-const havoc Int)
(declare-const |havoc:2:9| Int)
(assert (and (<= (- havoc) 0)
               (or (and (<= (+ (- havoc) 268435455) 0)
                          (= (+ (- |phi_x:10|) havoc) 0))
                     (and (< (+ havoc -268435455) 0) (<= (- |havoc:2:9|) 0)
                            (= (+ |havoc:2:9| (- |phi_x:10|)) 0)))
               (<= (+ (- |phi_x:10|) 268435455) 0)
               (not (<= (+ (- |phi_x:10|) 268435455) 0))))
(check-sat)
